%%% static parameters %%%
timespan = 1;
Clients_N = [500];
Demand_W = [15];
Lt0 = [4];
Lt1 = [4];
SS_ = [0.85];
DS_D = [20];
K = [200];
MA = [500];
HC = [0.05];
%%% dynamic parameters %%%
lost_ratio_sales_ret_th = 0.00047101043768724295;
lost_ratio_sales_ret_w = 45;
lost_ratio_sales_dis_th = 0.00017274678001875476;
lost_ratio_sales_dis_w = 32;
lost_ratio_sales_fac_th = 0.0006191238711488425;
lost_ratio_sales_fac_w = 43;
stock_customer_MA_mean_relative_th = 0.44579656021696457;
stock_customer_MA_mean_relative_w = 55;
stock_distributor_MA_mean_relative_th = 0.6744100836915038;
stock_distributor_MA_mean_relative_w = 32;
stock_retailer_MA_mean_relative_th = 0.836964921048763;
stock_retailer_MA_mean_relative_w = 67;
stock_factory_MA_mean_relative_th = 0.9340286670724419;
stock_factory_MA_mean_relative_w = 100;
